p cnf 19 23                 
-2 -1 -4 0
4 -8 0
-1 5 0
-2 5 0
1 2 -5 0
-5 -3 -6 0
6 -8 0
3 5 -7 0
7 -8 0
8 -13 0
2 1 11 0
-11 -12 0
3 1 10 0
-10 -12 0
3 2 9 0
-9 -12 0
12 -13 0
-1 2 -14 0
14 -18 0
-2 3 -16 0
16 -18 0
13 0
18 0
